LatticeConstant 1.0 Ang
%block LatticeVectors
 2.45951215 0.00000000 0.00000000
 0.00000000 28.52000000 0.00000000
 0.00000000 0.00000000 14.20000000
%endblock LatticeVectors

NumberOfAtoms 10
AtomicCoordinatesFormat Ang
%block AtomicCoordinatesAndAtomicSpecies
  0.00000000 10.00000000  0.00000000 1 #  1: C
  0.00000000 12.84000000  0.00000000 1 #  2: C
  0.00000000 14.26000000  0.00000000 1 #  3: C
  0.00000000 17.10000000  0.00000000 1 #  4: C
  1.22975607 10.71000000  0.00000000 1 #  5: C
  1.22975607 12.13000000  0.00000000 1 #  6: C
  1.22975607 14.97000000  0.00000000 1 #  7: C
  1.22975607 16.39000000  0.00000000 1 #  8: C
  0.00000000  8.91000000  0.00000000 2 #  9: H
  0.00000000 18.19000000  0.00000000 2 # 10: H
%endblock AtomicCoordinatesAndAtomicSpecies

NumberOfSpecies 2
%block ChemicalSpeciesLabel
 1 6 C
 2 1 H
%endblock ChemicalSpeciesLabel
